c Cardinality constraint <=k(x_1,...,x_n) for k = 1 and n = 8.
c Adders are encoded using implications.
c The numbers of clauses and variables on the next line are just upper bounds!
p cnf 22 40
1 2 -3 9 0
1 -2 3 9 0
-1 2 3 9 0
-1 -2 -3 9 0
-1 -2 10 0
-1 -3 10 0
-2 -3 10 0
4 5 -6 11 0
4 -5 6 11 0
-4 5 6 11 0
-4 -5 -6 11 0
-4 -5 12 0
-4 -6 12 0
-5 -6 12 0
9 11 -7 13 0
9 -11 7 13 0
-9 11 7 13 0
-9 -11 -7 13 0
-9 -11 14 0
-9 -7 14 0
-11 -7 14 0
10 12 -14 15 0
10 -12 14 15 0
-10 12 14 15 0
-10 -12 -14 15 0
-10 -12 16 0
-10 -14 16 0
-12 -14 16 0
13 -8 17 0
-13 8 17 0
-13 -8 18 0
15 -18 19 0
-15 18 19 0
-15 -18 20 0
16 -20 21 0
-16 20 21 0
-16 -20 22 0
-19 0
-21 0
-22 0
